JOBS = 1..5;
MACHINES = 1..3;
SPEED = 2;
time = array3d(JOBS,MACHINES,1..SPEED,[126,22,46,8,248,44,159,28,31,5,46,8,153,27,105,19,67,12,255,46,178,32,79,14,178,32,128,23,122,22]);
energy = array3d(JOBS,MACHINES,1..SPEED,[28,80,63,92,8,64,20,75,73,95,63,92,21,76,34,82,51,88,7,63,16,72,45,86,16,72,27,79,29,80]);
precedence = array2d(JOBS,MACHINES,[2,0,1,1,0,2,2,1,0,0,2,1,1,0,2]);
ME = 1;
TE = 142;
st_old = array2d(JOBS,MACHINES,[264,54,154,78,23,320,237,100,6,0,205,73,46,0,198]);
SpeedScaling = array2d(JOBS,MACHINES,[1,1,2,1,1,1,2,1,1,2,1,1,2,2,1]);
